NAME: bier127
COMMENT: Tabu Search - tabusSize: 0.3 - neighborSize: 3
DIMENSION: 127
DISTANCE: 118282.0
EXECUTION_TIME: 601.919
TOUR_SECTION: 
18 21 17 20 108 15 106 6 114 105 7 1 16 2 51 44 103 45 54 57 121 56 124 52 5 50 115 13 120 10 100 64 58 91 61 62 59 60 116 90 3 11 9 24 23 4 22 19 72 8 67 73 74 68 71 70 69 75 76 78 117 84 81 126 82 83 101 102 63 119 96 109 88 87 86 85 110 104 125 89 92 99 65 113 66 55 47 49 53 48 118 46 94 112 111 107 127 93 95 123 97 98 32 29 28 122 33 25 26 38 39 42 34 43 40 35 37 36 41 14 12 30 27 31 80 79 77 
EOF